Cars = 1..200;
Options = 1..5;
Classes = 1..22;
sequenceMinCapacity = [0, 0, 0, 0, 0];
sequenceMaxCapacity = [1, 2, 1, 2, 1];
sequenceSize = [2, 3, 3, 5, 5];
numOrdered = [11, 40, 3, 2, 22, 27, 4, 3, 14, 3, 5, 1, 1, 30, 2, 9, 1, 8, 4, 5, 3, 2];
classHasOption = [|false,  true,  true, false, false
                  |false, false, false,  true, false
                  |false,  true, false,  true,  true
                  | true,  true,  true, false, false
                  |false, false,  true, false, false
                  | true, false, false, false, false
                  | true, false, false, false,  true
                  | true,  true, false, false,  true
                  | true,  true, false, false, false
                  |false, false,  true,  true, false
                  | true, false,  true, false, false
                  | true, false,  true, false,  true
                  |false,  true,  true,  true,  true
                  |false,  true, false, false, false
                  |false, false,  true, false,  true
                  |false,  true, false,  true, false
                  | true,  true, false,  true,  true
                  |false, false, false, false,  true
                  |false,  true,  true,  true, false
                  | true,  true, false,  true, false
                  | true, false, false,  true, false
                  |false, false, false,  true,  true|];
optionOrdering = [3, 4, 1, 5, 2];
